(set-logic QF_FP)
(set-info :smt-lib-version 2.0)
(set-info :category "crafted")
(set-info :source |Alberto Griggio <griggio@fbk.eu>. These benchmarks were used for the evaluation in the following paper: L. Haller, A. Griggio, M. Brain, D. Kroening: Deciding floating-point logic with systematic abstraction. FMCAD 2012. Real-numbered literals have been automatically translated by MathSAT|)
(set-info :status unknown)
;; MathSAT API call trace
;; generated on 05/20/15 17:24:53

(declare-fun b306 () (_ FloatingPoint 11 53))
(declare-fun b1175 () (_ FloatingPoint 8 24))
(declare-fun b217 () (_ FloatingPoint 11 53))
(declare-fun b390 () (_ FloatingPoint 11 53))
(declare-fun b1086 () (_ FloatingPoint 8 24))
(declare-fun b1031 () (_ FloatingPoint 8 24))
(declare-fun b357 () (_ FloatingPoint 11 53))
(declare-fun b1110 () (_ FloatingPoint 8 24))
(declare-fun b1160 () (_ FloatingPoint 8 24))
(declare-fun b1011 () (_ FloatingPoint 8 24))
(declare-fun b1115 () (_ FloatingPoint 8 24))
(declare-fun b685 () (_ FloatingPoint 8 24))
(declare-fun b1056 () (_ FloatingPoint 8 24))
(declare-fun b1145 () (_ FloatingPoint 8 24))
(declare-fun b1076 () (_ FloatingPoint 8 24))
(declare-fun b1021 () (_ FloatingPoint 8 24))
(declare-fun b1066 () (_ FloatingPoint 8 24))
(declare-fun b1016 () (_ FloatingPoint 8 24))
(declare-fun b1046 () (_ FloatingPoint 8 24))
(declare-fun b1155 () (_ FloatingPoint 8 24))
(declare-fun b1026 () (_ FloatingPoint 8 24))
(declare-fun b289 () (_ FloatingPoint 11 53))
(declare-fun b1125 () (_ FloatingPoint 8 24))
(declare-fun b1140 () (_ FloatingPoint 8 24))
(declare-fun b1120 () (_ FloatingPoint 8 24))
(declare-fun b198 () (_ FloatingPoint 8 24))
(declare-fun b996 () (_ FloatingPoint 8 24))
(declare-fun b1180 () (_ FloatingPoint 8 24))
(declare-fun b207 () (_ FloatingPoint 8 24))
(declare-fun b441 () (_ FloatingPoint 11 53))
(declare-fun b1006 () (_ FloatingPoint 8 24))
(declare-fun b1095 () (_ FloatingPoint 8 24))
(declare-fun b200 () (_ FloatingPoint 8 24))
(declare-fun b1190 () (_ FloatingPoint 8 24))
(declare-fun b1100 () (_ FloatingPoint 8 24))
(declare-fun b526 () (_ FloatingPoint 11 53))
(declare-fun b994 () (_ FloatingPoint 8 24))
(declare-fun b1130 () (_ FloatingPoint 8 24))
(declare-fun b1051 () (_ FloatingPoint 8 24))
(declare-fun b989 () (_ FloatingPoint 8 24))
(declare-fun b1165 () (_ FloatingPoint 8 24))
(declare-fun b1071 () (_ FloatingPoint 8 24))
(declare-fun b340 () (_ FloatingPoint 11 53))
(declare-fun b1081 () (_ FloatingPoint 8 24))
(declare-fun b1061 () (_ FloatingPoint 8 24))
(declare-fun b323 () (_ FloatingPoint 11 53))
(declare-fun b1001 () (_ FloatingPoint 8 24))
(declare-fun b475 () (_ FloatingPoint 11 53))
(declare-fun b1150 () (_ FloatingPoint 8 24))
(declare-fun b543 () (_ FloatingPoint 11 53))
(declare-fun b424 () (_ FloatingPoint 11 53))
(declare-fun b682 () (_ FloatingPoint 8 24))
(declare-fun b1036 () (_ FloatingPoint 8 24))
(declare-fun b1135 () (_ FloatingPoint 8 24))
(declare-fun b255 () (_ FloatingPoint 11 53))
(declare-fun b239 () (_ FloatingPoint 11 53))
(declare-fun b407 () (_ FloatingPoint 11 53))
(declare-fun b1170 () (_ FloatingPoint 8 24))
(declare-fun b1041 () (_ FloatingPoint 8 24))
(declare-fun b492 () (_ FloatingPoint 11 53))
(declare-fun b272 () (_ FloatingPoint 11 53))
(declare-fun b458 () (_ FloatingPoint 11 53))
(declare-fun b1185 () (_ FloatingPoint 8 24))
(declare-fun b509 () (_ FloatingPoint 11 53))
(declare-fun b1105 () (_ FloatingPoint 8 24))
(declare-fun b373 () (_ FloatingPoint 11 53))
(declare-fun b230 () (_ FloatingPoint 11 53))
(define-fun _t_3 () RoundingMode RNE)
(define-fun _t_9 () (_ FloatingPoint 8 24) b198)
(define-fun _t_10 () (_ FloatingPoint 8 24) (fp.mul _t_3 _t_9 _t_9))
(define-fun _t_11 () (_ FloatingPoint 8 24) (fp.neg _t_10))
(define-fun _t_12 () (_ FloatingPoint 8 24) (fp.mul _t_3 _t_9 _t_11))
(define-fun _t_13 () (_ FloatingPoint 11 53) ((_ to_fp 11 53) _t_3 _t_12))
(define-fun _t_14 () (_ FloatingPoint 11 53) b217)
(define-fun _t_15 () (_ FloatingPoint 11 53) (fp.div _t_3 _t_13 _t_14))
(define-fun _t_16 () (_ FloatingPoint 8 24) ((_ to_fp 8 24) _t_3 _t_15))
(define-fun _t_17 () (_ FloatingPoint 8 24) b1190)
(define-fun _t_18 () Bool (= _t_16 _t_17))
(define-fun _t_19 () Bool (not _t_18))
(define-fun _t_20 () (_ FloatingPoint 8 24) (fp.mul _t_3 _t_11 _t_16))
(define-fun _t_21 () (_ FloatingPoint 11 53) ((_ to_fp 11 53) _t_3 _t_20))
(define-fun _t_22 () (_ FloatingPoint 11 53) b239)
(define-fun _t_23 () (_ FloatingPoint 11 53) (fp.div _t_3 _t_21 _t_22))
(define-fun _t_24 () (_ FloatingPoint 8 24) ((_ to_fp 8 24) _t_3 _t_23))
(define-fun _t_25 () (_ FloatingPoint 8 24) b1185)
(define-fun _t_26 () Bool (= _t_24 _t_25))
(define-fun _t_27 () Bool (not _t_26))
(define-fun _t_28 () (_ FloatingPoint 8 24) (fp.mul _t_3 _t_11 _t_24))
(define-fun _t_29 () (_ FloatingPoint 11 53) ((_ to_fp 11 53) _t_3 _t_28))
(define-fun _t_30 () (_ FloatingPoint 11 53) b255)
(define-fun _t_31 () (_ FloatingPoint 11 53) (fp.div _t_3 _t_29 _t_30))
(define-fun _t_32 () (_ FloatingPoint 8 24) ((_ to_fp 8 24) _t_3 _t_31))
(define-fun _t_33 () (_ FloatingPoint 8 24) b1180)
(define-fun _t_34 () Bool (= _t_32 _t_33))
(define-fun _t_35 () Bool (not _t_34))
(define-fun _t_36 () (_ FloatingPoint 8 24) (fp.mul _t_3 _t_11 _t_32))
(define-fun _t_37 () (_ FloatingPoint 11 53) ((_ to_fp 11 53) _t_3 _t_36))
(define-fun _t_38 () (_ FloatingPoint 11 53) b272)
(define-fun _t_39 () (_ FloatingPoint 11 53) (fp.div _t_3 _t_37 _t_38))
(define-fun _t_40 () (_ FloatingPoint 8 24) ((_ to_fp 8 24) _t_3 _t_39))
(define-fun _t_41 () (_ FloatingPoint 8 24) b1175)
(define-fun _t_42 () Bool (= _t_40 _t_41))
(define-fun _t_43 () Bool (not _t_42))
(define-fun _t_44 () (_ FloatingPoint 8 24) (fp.mul _t_3 _t_11 _t_40))
(define-fun _t_45 () (_ FloatingPoint 11 53) ((_ to_fp 11 53) _t_3 _t_44))
(define-fun _t_46 () (_ FloatingPoint 11 53) b289)
(define-fun _t_47 () (_ FloatingPoint 11 53) (fp.div _t_3 _t_45 _t_46))
(define-fun _t_48 () (_ FloatingPoint 8 24) ((_ to_fp 8 24) _t_3 _t_47))
(define-fun _t_49 () (_ FloatingPoint 8 24) b1170)
(define-fun _t_50 () Bool (= _t_48 _t_49))
(define-fun _t_51 () Bool (not _t_50))
(define-fun _t_52 () (_ FloatingPoint 8 24) (fp.mul _t_3 _t_11 _t_48))
(define-fun _t_53 () (_ FloatingPoint 11 53) ((_ to_fp 11 53) _t_3 _t_52))
(define-fun _t_54 () (_ FloatingPoint 11 53) b306)
(define-fun _t_55 () (_ FloatingPoint 11 53) (fp.div _t_3 _t_53 _t_54))
(define-fun _t_56 () (_ FloatingPoint 8 24) ((_ to_fp 8 24) _t_3 _t_55))
(define-fun _t_57 () (_ FloatingPoint 8 24) b1165)
(define-fun _t_58 () Bool (= _t_56 _t_57))
(define-fun _t_59 () Bool (not _t_58))
(define-fun _t_60 () (_ FloatingPoint 8 24) (fp.mul _t_3 _t_11 _t_56))
(define-fun _t_61 () (_ FloatingPoint 11 53) ((_ to_fp 11 53) _t_3 _t_60))
(define-fun _t_62 () (_ FloatingPoint 11 53) b323)
(define-fun _t_63 () (_ FloatingPoint 11 53) (fp.div _t_3 _t_61 _t_62))
(define-fun _t_64 () (_ FloatingPoint 8 24) ((_ to_fp 8 24) _t_3 _t_63))
(define-fun _t_65 () (_ FloatingPoint 8 24) b1160)
(define-fun _t_66 () Bool (= _t_64 _t_65))
(define-fun _t_67 () Bool (not _t_66))
(define-fun _t_68 () (_ FloatingPoint 8 24) (fp.mul _t_3 _t_11 _t_64))
(define-fun _t_69 () (_ FloatingPoint 11 53) ((_ to_fp 11 53) _t_3 _t_68))
(define-fun _t_70 () (_ FloatingPoint 11 53) b340)
(define-fun _t_71 () (_ FloatingPoint 11 53) (fp.div _t_3 _t_69 _t_70))
(define-fun _t_72 () (_ FloatingPoint 8 24) ((_ to_fp 8 24) _t_3 _t_71))
(define-fun _t_73 () (_ FloatingPoint 8 24) b1155)
(define-fun _t_74 () Bool (= _t_72 _t_73))
(define-fun _t_75 () Bool (not _t_74))
(define-fun _t_76 () (_ FloatingPoint 8 24) (fp.mul _t_3 _t_11 _t_72))
(define-fun _t_77 () (_ FloatingPoint 11 53) ((_ to_fp 11 53) _t_3 _t_76))
(define-fun _t_78 () (_ FloatingPoint 11 53) b357)
(define-fun _t_79 () (_ FloatingPoint 11 53) (fp.div _t_3 _t_77 _t_78))
(define-fun _t_80 () (_ FloatingPoint 8 24) ((_ to_fp 8 24) _t_3 _t_79))
(define-fun _t_81 () (_ FloatingPoint 8 24) b1150)
(define-fun _t_82 () Bool (= _t_80 _t_81))
(define-fun _t_83 () Bool (not _t_82))
(define-fun _t_84 () (_ FloatingPoint 8 24) (fp.mul _t_3 _t_11 _t_80))
(define-fun _t_85 () (_ FloatingPoint 11 53) ((_ to_fp 11 53) _t_3 _t_84))
(define-fun _t_86 () (_ FloatingPoint 11 53) b373)
(define-fun _t_87 () (_ FloatingPoint 11 53) (fp.div _t_3 _t_85 _t_86))
(define-fun _t_88 () (_ FloatingPoint 8 24) ((_ to_fp 8 24) _t_3 _t_87))
(define-fun _t_89 () (_ FloatingPoint 8 24) b1145)
(define-fun _t_90 () Bool (= _t_88 _t_89))
(define-fun _t_91 () Bool (not _t_90))
(define-fun _t_92 () (_ FloatingPoint 8 24) (fp.mul _t_3 _t_11 _t_88))
(define-fun _t_93 () (_ FloatingPoint 11 53) ((_ to_fp 11 53) _t_3 _t_92))
(define-fun _t_94 () (_ FloatingPoint 11 53) b390)
(define-fun _t_95 () (_ FloatingPoint 11 53) (fp.div _t_3 _t_93 _t_94))
(define-fun _t_96 () (_ FloatingPoint 8 24) ((_ to_fp 8 24) _t_3 _t_95))
(define-fun _t_97 () (_ FloatingPoint 8 24) b1140)
(define-fun _t_98 () Bool (= _t_96 _t_97))
(define-fun _t_99 () Bool (not _t_98))
(define-fun _t_100 () (_ FloatingPoint 8 24) (fp.mul _t_3 _t_11 _t_96))
(define-fun _t_101 () (_ FloatingPoint 11 53) ((_ to_fp 11 53) _t_3 _t_100))
(define-fun _t_102 () (_ FloatingPoint 11 53) b407)
(define-fun _t_103 () (_ FloatingPoint 11 53) (fp.div _t_3 _t_101 _t_102))
(define-fun _t_104 () (_ FloatingPoint 8 24) ((_ to_fp 8 24) _t_3 _t_103))
(define-fun _t_105 () (_ FloatingPoint 8 24) b1135)
(define-fun _t_106 () Bool (= _t_104 _t_105))
(define-fun _t_107 () Bool (not _t_106))
(define-fun _t_108 () (_ FloatingPoint 8 24) (fp.mul _t_3 _t_11 _t_104))
(define-fun _t_109 () (_ FloatingPoint 11 53) ((_ to_fp 11 53) _t_3 _t_108))
(define-fun _t_110 () (_ FloatingPoint 11 53) b424)
(define-fun _t_111 () (_ FloatingPoint 11 53) (fp.div _t_3 _t_109 _t_110))
(define-fun _t_112 () (_ FloatingPoint 8 24) ((_ to_fp 8 24) _t_3 _t_111))
(define-fun _t_113 () (_ FloatingPoint 8 24) b1130)
(define-fun _t_114 () Bool (= _t_112 _t_113))
(define-fun _t_115 () Bool (not _t_114))
(define-fun _t_116 () (_ FloatingPoint 8 24) (fp.mul _t_3 _t_11 _t_112))
(define-fun _t_117 () (_ FloatingPoint 11 53) ((_ to_fp 11 53) _t_3 _t_116))
(define-fun _t_118 () (_ FloatingPoint 11 53) b441)
(define-fun _t_119 () (_ FloatingPoint 11 53) (fp.div _t_3 _t_117 _t_118))
(define-fun _t_120 () (_ FloatingPoint 8 24) ((_ to_fp 8 24) _t_3 _t_119))
(define-fun _t_121 () (_ FloatingPoint 8 24) b1125)
(define-fun _t_122 () Bool (= _t_120 _t_121))
(define-fun _t_123 () Bool (not _t_122))
(define-fun _t_124 () (_ FloatingPoint 8 24) (fp.mul _t_3 _t_11 _t_120))
(define-fun _t_125 () (_ FloatingPoint 11 53) ((_ to_fp 11 53) _t_3 _t_124))
(define-fun _t_126 () (_ FloatingPoint 11 53) b458)
(define-fun _t_127 () (_ FloatingPoint 11 53) (fp.div _t_3 _t_125 _t_126))
(define-fun _t_128 () (_ FloatingPoint 8 24) ((_ to_fp 8 24) _t_3 _t_127))
(define-fun _t_129 () (_ FloatingPoint 8 24) b1120)
(define-fun _t_130 () Bool (= _t_128 _t_129))
(define-fun _t_131 () Bool (not _t_130))
(define-fun _t_132 () (_ FloatingPoint 8 24) (fp.mul _t_3 _t_11 _t_128))
(define-fun _t_133 () (_ FloatingPoint 11 53) ((_ to_fp 11 53) _t_3 _t_132))
(define-fun _t_134 () (_ FloatingPoint 11 53) b475)
(define-fun _t_135 () (_ FloatingPoint 11 53) (fp.div _t_3 _t_133 _t_134))
(define-fun _t_136 () (_ FloatingPoint 8 24) ((_ to_fp 8 24) _t_3 _t_135))
(define-fun _t_137 () (_ FloatingPoint 8 24) b1115)
(define-fun _t_138 () Bool (= _t_136 _t_137))
(define-fun _t_139 () Bool (not _t_138))
(define-fun _t_140 () (_ FloatingPoint 8 24) (fp.mul _t_3 _t_11 _t_136))
(define-fun _t_141 () (_ FloatingPoint 11 53) ((_ to_fp 11 53) _t_3 _t_140))
(define-fun _t_142 () (_ FloatingPoint 11 53) b492)
(define-fun _t_143 () (_ FloatingPoint 11 53) (fp.div _t_3 _t_141 _t_142))
(define-fun _t_144 () (_ FloatingPoint 8 24) ((_ to_fp 8 24) _t_3 _t_143))
(define-fun _t_145 () (_ FloatingPoint 8 24) b1110)
(define-fun _t_146 () Bool (= _t_144 _t_145))
(define-fun _t_147 () Bool (not _t_146))
(define-fun _t_148 () (_ FloatingPoint 8 24) (fp.mul _t_3 _t_11 _t_144))
(define-fun _t_149 () (_ FloatingPoint 11 53) ((_ to_fp 11 53) _t_3 _t_148))
(define-fun _t_150 () (_ FloatingPoint 11 53) b509)
(define-fun _t_151 () (_ FloatingPoint 11 53) (fp.div _t_3 _t_149 _t_150))
(define-fun _t_152 () (_ FloatingPoint 8 24) ((_ to_fp 8 24) _t_3 _t_151))
(define-fun _t_153 () (_ FloatingPoint 8 24) b1105)
(define-fun _t_154 () Bool (= _t_152 _t_153))
(define-fun _t_155 () Bool (not _t_154))
(define-fun _t_156 () (_ FloatingPoint 8 24) (fp.mul _t_3 _t_11 _t_152))
(define-fun _t_157 () (_ FloatingPoint 11 53) ((_ to_fp 11 53) _t_3 _t_156))
(define-fun _t_158 () (_ FloatingPoint 11 53) b526)
(define-fun _t_159 () (_ FloatingPoint 11 53) (fp.div _t_3 _t_157 _t_158))
(define-fun _t_160 () (_ FloatingPoint 8 24) ((_ to_fp 8 24) _t_3 _t_159))
(define-fun _t_161 () (_ FloatingPoint 8 24) b1100)
(define-fun _t_162 () Bool (= _t_160 _t_161))
(define-fun _t_163 () Bool (not _t_162))
(define-fun _t_164 () (_ FloatingPoint 8 24) (fp.mul _t_3 _t_11 _t_160))
(define-fun _t_165 () (_ FloatingPoint 11 53) ((_ to_fp 11 53) _t_3 _t_164))
(define-fun _t_166 () (_ FloatingPoint 11 53) b543)
(define-fun _t_167 () (_ FloatingPoint 11 53) (fp.div _t_3 _t_165 _t_166))
(define-fun _t_168 () (_ FloatingPoint 8 24) ((_ to_fp 8 24) _t_3 _t_167))
(define-fun _t_169 () (_ FloatingPoint 8 24) b1095)
(define-fun _t_170 () Bool (= _t_168 _t_169))
(define-fun _t_171 () Bool (not _t_170))
(define-fun _t_172 () (_ FloatingPoint 8 24) b994)
(define-fun _t_173 () (_ FloatingPoint 8 24) b1086)
(define-fun _t_174 () Bool (= _t_172 _t_173))
(define-fun _t_175 () Bool (not _t_174))
(define-fun _t_176 () (_ FloatingPoint 8 24) b1081)
(define-fun _t_177 () Bool (= _t_173 _t_176))
(define-fun _t_178 () Bool (not _t_177))
(define-fun _t_179 () (_ FloatingPoint 8 24) b1076)
(define-fun _t_180 () Bool (= _t_176 _t_179))
(define-fun _t_181 () Bool (not _t_180))
(define-fun _t_182 () (_ FloatingPoint 8 24) b1071)
(define-fun _t_183 () Bool (= _t_179 _t_182))
(define-fun _t_184 () Bool (not _t_183))
(define-fun _t_185 () (_ FloatingPoint 8 24) b1066)
(define-fun _t_186 () Bool (= _t_182 _t_185))
(define-fun _t_187 () Bool (not _t_186))
(define-fun _t_188 () (_ FloatingPoint 8 24) b1061)
(define-fun _t_189 () Bool (= _t_185 _t_188))
(define-fun _t_190 () Bool (not _t_189))
(define-fun _t_191 () (_ FloatingPoint 8 24) b1056)
(define-fun _t_192 () Bool (= _t_188 _t_191))
(define-fun _t_193 () Bool (not _t_192))
(define-fun _t_194 () (_ FloatingPoint 8 24) b1051)
(define-fun _t_195 () Bool (= _t_191 _t_194))
(define-fun _t_196 () Bool (not _t_195))
(define-fun _t_197 () (_ FloatingPoint 8 24) b1046)
(define-fun _t_198 () Bool (= _t_194 _t_197))
(define-fun _t_199 () Bool (not _t_198))
(define-fun _t_200 () (_ FloatingPoint 8 24) b1041)
(define-fun _t_201 () Bool (= _t_197 _t_200))
(define-fun _t_202 () Bool (not _t_201))
(define-fun _t_203 () (_ FloatingPoint 8 24) b1036)
(define-fun _t_204 () Bool (= _t_200 _t_203))
(define-fun _t_205 () Bool (not _t_204))
(define-fun _t_206 () (_ FloatingPoint 8 24) b1031)
(define-fun _t_207 () Bool (= _t_203 _t_206))
(define-fun _t_208 () Bool (not _t_207))
(define-fun _t_209 () (_ FloatingPoint 8 24) b1026)
(define-fun _t_210 () Bool (= _t_206 _t_209))
(define-fun _t_211 () Bool (not _t_210))
(define-fun _t_212 () (_ FloatingPoint 8 24) b1021)
(define-fun _t_213 () Bool (= _t_209 _t_212))
(define-fun _t_214 () Bool (not _t_213))
(define-fun _t_215 () (_ FloatingPoint 8 24) b1016)
(define-fun _t_216 () Bool (= _t_212 _t_215))
(define-fun _t_217 () Bool (not _t_216))
(define-fun _t_218 () (_ FloatingPoint 8 24) b1011)
(define-fun _t_219 () Bool (= _t_215 _t_218))
(define-fun _t_220 () Bool (not _t_219))
(define-fun _t_221 () (_ FloatingPoint 8 24) b1006)
(define-fun _t_222 () Bool (= _t_218 _t_221))
(define-fun _t_223 () Bool (not _t_222))
(define-fun _t_224 () (_ FloatingPoint 8 24) b1001)
(define-fun _t_225 () Bool (= _t_221 _t_224))
(define-fun _t_226 () Bool (not _t_225))
(define-fun _t_227 () (_ FloatingPoint 8 24) (fp.add _t_3 _t_9 _t_16))
(define-fun _t_228 () (_ FloatingPoint 8 24) (fp.add _t_3 _t_24 _t_227))
(define-fun _t_229 () (_ FloatingPoint 8 24) (fp.add _t_3 _t_32 _t_228))
(define-fun _t_230 () (_ FloatingPoint 8 24) (fp.add _t_3 _t_40 _t_229))
(define-fun _t_231 () (_ FloatingPoint 8 24) (fp.add _t_3 _t_48 _t_230))
(define-fun _t_232 () (_ FloatingPoint 8 24) (fp.add _t_3 _t_56 _t_231))
(define-fun _t_233 () (_ FloatingPoint 8 24) (fp.add _t_3 _t_64 _t_232))
(define-fun _t_234 () (_ FloatingPoint 8 24) (fp.add _t_3 _t_72 _t_233))
(define-fun _t_235 () (_ FloatingPoint 8 24) (fp.add _t_3 _t_80 _t_234))
(define-fun _t_236 () (_ FloatingPoint 8 24) (fp.add _t_3 _t_88 _t_235))
(define-fun _t_237 () (_ FloatingPoint 8 24) (fp.add _t_3 _t_96 _t_236))
(define-fun _t_238 () (_ FloatingPoint 8 24) (fp.add _t_3 _t_104 _t_237))
(define-fun _t_239 () (_ FloatingPoint 8 24) (fp.add _t_3 _t_112 _t_238))
(define-fun _t_240 () (_ FloatingPoint 8 24) (fp.add _t_3 _t_120 _t_239))
(define-fun _t_241 () (_ FloatingPoint 8 24) (fp.add _t_3 _t_128 _t_240))
(define-fun _t_242 () (_ FloatingPoint 8 24) (fp.add _t_3 _t_136 _t_241))
(define-fun _t_243 () (_ FloatingPoint 8 24) (fp.add _t_3 _t_144 _t_242))
(define-fun _t_244 () (_ FloatingPoint 8 24) (fp.add _t_3 _t_152 _t_243))
(define-fun _t_245 () (_ FloatingPoint 8 24) (fp.add _t_3 _t_160 _t_244))
(define-fun _t_246 () (_ FloatingPoint 8 24) (fp.add _t_3 _t_168 _t_245))
(define-fun _t_247 () Bool (= _t_224 _t_246))
(define-fun _t_248 () Bool (not _t_247))
(define-fun _t_249 () (_ FloatingPoint 8 24) b996)
(define-fun _t_250 () Bool (= _t_172 _t_249))
(define-fun _t_251 () Bool (not _t_250))
(define-fun _t_252 () (_ FloatingPoint 8 24) b989)
(define-fun _t_253 () Bool (= _t_9 _t_252))
(define-fun _t_254 () Bool (not _t_253))
(define-fun _t_255 () (_ FloatingPoint 8 24) b200)
(define-fun _t_256 () Bool (fp.leq _t_255 _t_9))
(define-fun _t_257 () Bool (not _t_256))
(define-fun _t_258 () (_ FloatingPoint 8 24) (fp.neg _t_9))
(define-fun _t_259 () Bool (= _t_252 _t_258))
(define-fun _t_260 () Bool (and _t_257 _t_259))
(define-fun _t_261 () Bool (and _t_254 _t_260))
(define-fun _t_262 () Bool (fp.leq _t_255 _t_172))
(define-fun _t_263 () Bool (not _t_262))
(define-fun _t_264 () Bool (and _t_261 _t_263))
(define-fun _t_265 () (_ FloatingPoint 8 24) (fp.neg _t_172))
(define-fun _t_266 () Bool (= _t_249 _t_265))
(define-fun _t_267 () Bool (and _t_264 _t_266))
(define-fun _t_268 () Bool (and _t_251 _t_267))
(define-fun _t_269 () (_ FloatingPoint 11 53) ((_ to_fp 11 53) _t_3 _t_161))
(define-fun _t_270 () (_ FloatingPoint 11 53) b230)
(define-fun _t_271 () Bool (fp.leq _t_270 _t_269))
(define-fun _t_272 () Bool (not _t_271))
(define-fun _t_273 () Bool (and _t_268 _t_272))
(define-fun _t_274 () Bool (= _t_224 _t_245))
(define-fun _t_275 () Bool (and _t_273 _t_274))
(define-fun _t_276 () (_ FloatingPoint 8 24) b207)
(define-fun _t_277 () Bool (fp.leq _t_249 _t_276))
(define-fun _t_278 () Bool (not _t_277))
(define-fun _t_279 () Bool (and _t_275 _t_278))
(define-fun _t_280 () (_ FloatingPoint 8 24) b685)
(define-fun _t_281 () Bool (fp.leq _t_252 _t_280))
(define-fun _t_282 () Bool (and _t_279 _t_281))
(define-fun _t_283 () (_ FloatingPoint 8 24) b682)
(define-fun _t_284 () Bool (fp.leq _t_283 _t_9))
(define-fun _t_285 () Bool (and _t_282 _t_284))
(define-fun _t_286 () Bool (fp.leq _t_9 _t_280))
(define-fun _t_287 () Bool (and _t_285 _t_286))
(define-fun _t_288 () Bool (and _t_248 _t_287))
(define-fun _t_289 () (_ FloatingPoint 11 53) ((_ to_fp 11 53) _t_3 _t_153))
(define-fun _t_290 () Bool (fp.leq _t_270 _t_289))
(define-fun _t_291 () Bool (not _t_290))
(define-fun _t_292 () Bool (and _t_288 _t_291))
(define-fun _t_293 () Bool (= _t_221 _t_244))
(define-fun _t_294 () Bool (and _t_292 _t_293))
(define-fun _t_295 () Bool (and _t_226 _t_294))
(define-fun _t_296 () (_ FloatingPoint 11 53) ((_ to_fp 11 53) _t_3 _t_145))
(define-fun _t_297 () Bool (fp.leq _t_270 _t_296))
(define-fun _t_298 () Bool (not _t_297))
(define-fun _t_299 () Bool (and _t_295 _t_298))
(define-fun _t_300 () Bool (= _t_218 _t_243))
(define-fun _t_301 () Bool (and _t_299 _t_300))
(define-fun _t_302 () Bool (and _t_223 _t_301))
(define-fun _t_303 () (_ FloatingPoint 11 53) ((_ to_fp 11 53) _t_3 _t_137))
(define-fun _t_304 () Bool (fp.leq _t_270 _t_303))
(define-fun _t_305 () Bool (not _t_304))
(define-fun _t_306 () Bool (and _t_302 _t_305))
(define-fun _t_307 () Bool (= _t_215 _t_242))
(define-fun _t_308 () Bool (and _t_306 _t_307))
(define-fun _t_309 () Bool (and _t_220 _t_308))
(define-fun _t_310 () (_ FloatingPoint 11 53) ((_ to_fp 11 53) _t_3 _t_129))
(define-fun _t_311 () Bool (fp.leq _t_270 _t_310))
(define-fun _t_312 () Bool (not _t_311))
(define-fun _t_313 () Bool (and _t_309 _t_312))
(define-fun _t_314 () Bool (= _t_212 _t_241))
(define-fun _t_315 () Bool (and _t_313 _t_314))
(define-fun _t_316 () Bool (and _t_217 _t_315))
(define-fun _t_317 () (_ FloatingPoint 11 53) ((_ to_fp 11 53) _t_3 _t_121))
(define-fun _t_318 () Bool (fp.leq _t_270 _t_317))
(define-fun _t_319 () Bool (not _t_318))
(define-fun _t_320 () Bool (and _t_316 _t_319))
(define-fun _t_321 () Bool (= _t_209 _t_240))
(define-fun _t_322 () Bool (and _t_320 _t_321))
(define-fun _t_323 () Bool (and _t_214 _t_322))
(define-fun _t_324 () (_ FloatingPoint 11 53) ((_ to_fp 11 53) _t_3 _t_113))
(define-fun _t_325 () Bool (fp.leq _t_270 _t_324))
(define-fun _t_326 () Bool (not _t_325))
(define-fun _t_327 () Bool (and _t_323 _t_326))
(define-fun _t_328 () Bool (= _t_206 _t_239))
(define-fun _t_329 () Bool (and _t_327 _t_328))
(define-fun _t_330 () Bool (and _t_211 _t_329))
(define-fun _t_331 () (_ FloatingPoint 11 53) ((_ to_fp 11 53) _t_3 _t_105))
(define-fun _t_332 () Bool (fp.leq _t_270 _t_331))
(define-fun _t_333 () Bool (not _t_332))
(define-fun _t_334 () Bool (and _t_330 _t_333))
(define-fun _t_335 () Bool (= _t_203 _t_238))
(define-fun _t_336 () Bool (and _t_334 _t_335))
(define-fun _t_337 () Bool (and _t_208 _t_336))
(define-fun _t_338 () (_ FloatingPoint 11 53) ((_ to_fp 11 53) _t_3 _t_97))
(define-fun _t_339 () Bool (fp.leq _t_270 _t_338))
(define-fun _t_340 () Bool (not _t_339))
(define-fun _t_341 () Bool (and _t_337 _t_340))
(define-fun _t_342 () Bool (= _t_200 _t_237))
(define-fun _t_343 () Bool (and _t_341 _t_342))
(define-fun _t_344 () Bool (and _t_205 _t_343))
(define-fun _t_345 () (_ FloatingPoint 11 53) ((_ to_fp 11 53) _t_3 _t_89))
(define-fun _t_346 () Bool (fp.leq _t_270 _t_345))
(define-fun _t_347 () Bool (not _t_346))
(define-fun _t_348 () Bool (and _t_344 _t_347))
(define-fun _t_349 () Bool (= _t_197 _t_236))
(define-fun _t_350 () Bool (and _t_348 _t_349))
(define-fun _t_351 () Bool (and _t_202 _t_350))
(define-fun _t_352 () (_ FloatingPoint 11 53) ((_ to_fp 11 53) _t_3 _t_81))
(define-fun _t_353 () Bool (fp.leq _t_270 _t_352))
(define-fun _t_354 () Bool (not _t_353))
(define-fun _t_355 () Bool (and _t_351 _t_354))
(define-fun _t_356 () Bool (= _t_194 _t_235))
(define-fun _t_357 () Bool (and _t_355 _t_356))
(define-fun _t_358 () Bool (and _t_199 _t_357))
(define-fun _t_359 () (_ FloatingPoint 11 53) ((_ to_fp 11 53) _t_3 _t_73))
(define-fun _t_360 () Bool (fp.leq _t_270 _t_359))
(define-fun _t_361 () Bool (not _t_360))
(define-fun _t_362 () Bool (and _t_358 _t_361))
(define-fun _t_363 () Bool (= _t_191 _t_234))
(define-fun _t_364 () Bool (and _t_362 _t_363))
(define-fun _t_365 () Bool (and _t_196 _t_364))
(define-fun _t_366 () (_ FloatingPoint 11 53) ((_ to_fp 11 53) _t_3 _t_65))
(define-fun _t_367 () Bool (fp.leq _t_270 _t_366))
(define-fun _t_368 () Bool (not _t_367))
(define-fun _t_369 () Bool (and _t_365 _t_368))
(define-fun _t_370 () Bool (= _t_188 _t_233))
(define-fun _t_371 () Bool (and _t_369 _t_370))
(define-fun _t_372 () Bool (and _t_193 _t_371))
(define-fun _t_373 () (_ FloatingPoint 11 53) ((_ to_fp 11 53) _t_3 _t_57))
(define-fun _t_374 () Bool (fp.leq _t_270 _t_373))
(define-fun _t_375 () Bool (not _t_374))
(define-fun _t_376 () Bool (and _t_372 _t_375))
(define-fun _t_377 () Bool (= _t_185 _t_232))
(define-fun _t_378 () Bool (and _t_376 _t_377))
(define-fun _t_379 () Bool (and _t_190 _t_378))
(define-fun _t_380 () (_ FloatingPoint 11 53) ((_ to_fp 11 53) _t_3 _t_49))
(define-fun _t_381 () Bool (fp.leq _t_270 _t_380))
(define-fun _t_382 () Bool (not _t_381))
(define-fun _t_383 () Bool (and _t_379 _t_382))
(define-fun _t_384 () Bool (= _t_182 _t_231))
(define-fun _t_385 () Bool (and _t_383 _t_384))
(define-fun _t_386 () Bool (and _t_187 _t_385))
(define-fun _t_387 () (_ FloatingPoint 11 53) ((_ to_fp 11 53) _t_3 _t_41))
(define-fun _t_388 () Bool (fp.leq _t_270 _t_387))
(define-fun _t_389 () Bool (not _t_388))
(define-fun _t_390 () Bool (and _t_386 _t_389))
(define-fun _t_391 () Bool (= _t_179 _t_230))
(define-fun _t_392 () Bool (and _t_390 _t_391))
(define-fun _t_393 () Bool (and _t_184 _t_392))
(define-fun _t_394 () (_ FloatingPoint 11 53) ((_ to_fp 11 53) _t_3 _t_33))
(define-fun _t_395 () Bool (fp.leq _t_270 _t_394))
(define-fun _t_396 () Bool (not _t_395))
(define-fun _t_397 () Bool (and _t_393 _t_396))
(define-fun _t_398 () Bool (= _t_176 _t_229))
(define-fun _t_399 () Bool (and _t_397 _t_398))
(define-fun _t_400 () Bool (and _t_181 _t_399))
(define-fun _t_401 () (_ FloatingPoint 11 53) ((_ to_fp 11 53) _t_3 _t_25))
(define-fun _t_402 () Bool (fp.leq _t_270 _t_401))
(define-fun _t_403 () Bool (not _t_402))
(define-fun _t_404 () Bool (and _t_400 _t_403))
(define-fun _t_405 () Bool (= _t_173 _t_228))
(define-fun _t_406 () Bool (and _t_404 _t_405))
(define-fun _t_407 () Bool (and _t_178 _t_406))
(define-fun _t_408 () (_ FloatingPoint 11 53) ((_ to_fp 11 53) _t_3 _t_17))
(define-fun _t_409 () Bool (fp.leq _t_270 _t_408))
(define-fun _t_410 () Bool (not _t_409))
(define-fun _t_411 () Bool (and _t_407 _t_410))
(define-fun _t_412 () Bool (= _t_172 _t_227))
(define-fun _t_413 () Bool (and _t_411 _t_412))
(define-fun _t_414 () Bool (and _t_175 _t_413))
(define-fun _t_415 () Bool (fp.leq _t_255 _t_168))
(define-fun _t_416 () Bool (not _t_415))
(define-fun _t_417 () Bool (and _t_414 _t_416))
(define-fun _t_418 () (_ FloatingPoint 8 24) (fp.neg _t_168))
(define-fun _t_419 () Bool (= _t_169 _t_418))
(define-fun _t_420 () Bool (and _t_417 _t_419))
(define-fun _t_421 () Bool (and _t_171 _t_420))
(define-fun _t_422 () Bool (fp.leq _t_255 _t_160))
(define-fun _t_423 () Bool (not _t_422))
(define-fun _t_424 () Bool (and _t_421 _t_423))
(define-fun _t_425 () (_ FloatingPoint 8 24) (fp.neg _t_160))
(define-fun _t_426 () Bool (= _t_161 _t_425))
(define-fun _t_427 () Bool (and _t_424 _t_426))
(define-fun _t_428 () Bool (and _t_163 _t_427))
(define-fun _t_429 () Bool (fp.leq _t_255 _t_152))
(define-fun _t_430 () Bool (not _t_429))
(define-fun _t_431 () Bool (and _t_428 _t_430))
(define-fun _t_432 () (_ FloatingPoint 8 24) (fp.neg _t_152))
(define-fun _t_433 () Bool (= _t_153 _t_432))
(define-fun _t_434 () Bool (and _t_431 _t_433))
(define-fun _t_435 () Bool (and _t_155 _t_434))
(define-fun _t_436 () Bool (fp.leq _t_255 _t_144))
(define-fun _t_437 () Bool (not _t_436))
(define-fun _t_438 () Bool (and _t_435 _t_437))
(define-fun _t_439 () (_ FloatingPoint 8 24) (fp.neg _t_144))
(define-fun _t_440 () Bool (= _t_145 _t_439))
(define-fun _t_441 () Bool (and _t_438 _t_440))
(define-fun _t_442 () Bool (and _t_147 _t_441))
(define-fun _t_443 () Bool (fp.leq _t_255 _t_136))
(define-fun _t_444 () Bool (not _t_443))
(define-fun _t_445 () Bool (and _t_442 _t_444))
(define-fun _t_446 () (_ FloatingPoint 8 24) (fp.neg _t_136))
(define-fun _t_447 () Bool (= _t_137 _t_446))
(define-fun _t_448 () Bool (and _t_445 _t_447))
(define-fun _t_449 () Bool (and _t_139 _t_448))
(define-fun _t_450 () Bool (fp.leq _t_255 _t_128))
(define-fun _t_451 () Bool (not _t_450))
(define-fun _t_452 () Bool (and _t_449 _t_451))
(define-fun _t_453 () (_ FloatingPoint 8 24) (fp.neg _t_128))
(define-fun _t_454 () Bool (= _t_129 _t_453))
(define-fun _t_455 () Bool (and _t_452 _t_454))
(define-fun _t_456 () Bool (and _t_131 _t_455))
(define-fun _t_457 () Bool (fp.leq _t_255 _t_120))
(define-fun _t_458 () Bool (not _t_457))
(define-fun _t_459 () Bool (and _t_456 _t_458))
(define-fun _t_460 () (_ FloatingPoint 8 24) (fp.neg _t_120))
(define-fun _t_461 () Bool (= _t_121 _t_460))
(define-fun _t_462 () Bool (and _t_459 _t_461))
(define-fun _t_463 () Bool (and _t_123 _t_462))
(define-fun _t_464 () Bool (fp.leq _t_255 _t_112))
(define-fun _t_465 () Bool (not _t_464))
(define-fun _t_466 () Bool (and _t_463 _t_465))
(define-fun _t_467 () (_ FloatingPoint 8 24) (fp.neg _t_112))
(define-fun _t_468 () Bool (= _t_113 _t_467))
(define-fun _t_469 () Bool (and _t_466 _t_468))
(define-fun _t_470 () Bool (and _t_115 _t_469))
(define-fun _t_471 () Bool (fp.leq _t_255 _t_104))
(define-fun _t_472 () Bool (not _t_471))
(define-fun _t_473 () Bool (and _t_470 _t_472))
(define-fun _t_474 () (_ FloatingPoint 8 24) (fp.neg _t_104))
(define-fun _t_475 () Bool (= _t_105 _t_474))
(define-fun _t_476 () Bool (and _t_473 _t_475))
(define-fun _t_477 () Bool (and _t_107 _t_476))
(define-fun _t_478 () Bool (fp.leq _t_255 _t_96))
(define-fun _t_479 () Bool (not _t_478))
(define-fun _t_480 () Bool (and _t_477 _t_479))
(define-fun _t_481 () (_ FloatingPoint 8 24) (fp.neg _t_96))
(define-fun _t_482 () Bool (= _t_97 _t_481))
(define-fun _t_483 () Bool (and _t_480 _t_482))
(define-fun _t_484 () Bool (and _t_99 _t_483))
(define-fun _t_485 () Bool (fp.leq _t_255 _t_88))
(define-fun _t_486 () Bool (not _t_485))
(define-fun _t_487 () Bool (and _t_484 _t_486))
(define-fun _t_488 () (_ FloatingPoint 8 24) (fp.neg _t_88))
(define-fun _t_489 () Bool (= _t_89 _t_488))
(define-fun _t_490 () Bool (and _t_487 _t_489))
(define-fun _t_491 () Bool (and _t_91 _t_490))
(define-fun _t_492 () Bool (fp.leq _t_255 _t_80))
(define-fun _t_493 () Bool (not _t_492))
(define-fun _t_494 () Bool (and _t_491 _t_493))
(define-fun _t_495 () (_ FloatingPoint 8 24) (fp.neg _t_80))
(define-fun _t_496 () Bool (= _t_81 _t_495))
(define-fun _t_497 () Bool (and _t_494 _t_496))
(define-fun _t_498 () Bool (and _t_83 _t_497))
(define-fun _t_499 () Bool (fp.leq _t_255 _t_72))
(define-fun _t_500 () Bool (not _t_499))
(define-fun _t_501 () Bool (and _t_498 _t_500))
(define-fun _t_502 () (_ FloatingPoint 8 24) (fp.neg _t_72))
(define-fun _t_503 () Bool (= _t_73 _t_502))
(define-fun _t_504 () Bool (and _t_501 _t_503))
(define-fun _t_505 () Bool (and _t_75 _t_504))
(define-fun _t_506 () Bool (fp.leq _t_255 _t_64))
(define-fun _t_507 () Bool (not _t_506))
(define-fun _t_508 () Bool (and _t_505 _t_507))
(define-fun _t_509 () (_ FloatingPoint 8 24) (fp.neg _t_64))
(define-fun _t_510 () Bool (= _t_65 _t_509))
(define-fun _t_511 () Bool (and _t_508 _t_510))
(define-fun _t_512 () Bool (and _t_67 _t_511))
(define-fun _t_513 () Bool (fp.leq _t_255 _t_56))
(define-fun _t_514 () Bool (not _t_513))
(define-fun _t_515 () Bool (and _t_512 _t_514))
(define-fun _t_516 () (_ FloatingPoint 8 24) (fp.neg _t_56))
(define-fun _t_517 () Bool (= _t_57 _t_516))
(define-fun _t_518 () Bool (and _t_515 _t_517))
(define-fun _t_519 () Bool (and _t_59 _t_518))
(define-fun _t_520 () Bool (fp.leq _t_255 _t_48))
(define-fun _t_521 () Bool (not _t_520))
(define-fun _t_522 () Bool (and _t_519 _t_521))
(define-fun _t_523 () (_ FloatingPoint 8 24) (fp.neg _t_48))
(define-fun _t_524 () Bool (= _t_49 _t_523))
(define-fun _t_525 () Bool (and _t_522 _t_524))
(define-fun _t_526 () Bool (and _t_51 _t_525))
(define-fun _t_527 () Bool (fp.leq _t_255 _t_40))
(define-fun _t_528 () Bool (not _t_527))
(define-fun _t_529 () Bool (and _t_526 _t_528))
(define-fun _t_530 () (_ FloatingPoint 8 24) (fp.neg _t_40))
(define-fun _t_531 () Bool (= _t_41 _t_530))
(define-fun _t_532 () Bool (and _t_529 _t_531))
(define-fun _t_533 () Bool (and _t_43 _t_532))
(define-fun _t_534 () Bool (fp.leq _t_255 _t_32))
(define-fun _t_535 () Bool (not _t_534))
(define-fun _t_536 () Bool (and _t_533 _t_535))
(define-fun _t_537 () (_ FloatingPoint 8 24) (fp.neg _t_32))
(define-fun _t_538 () Bool (= _t_33 _t_537))
(define-fun _t_539 () Bool (and _t_536 _t_538))
(define-fun _t_540 () Bool (and _t_35 _t_539))
(define-fun _t_541 () Bool (fp.leq _t_255 _t_24))
(define-fun _t_542 () Bool (not _t_541))
(define-fun _t_543 () Bool (and _t_540 _t_542))
(define-fun _t_544 () (_ FloatingPoint 8 24) (fp.neg _t_24))
(define-fun _t_545 () Bool (= _t_25 _t_544))
(define-fun _t_546 () Bool (and _t_543 _t_545))
(define-fun _t_547 () Bool (and _t_27 _t_546))
(define-fun _t_548 () Bool (fp.leq _t_255 _t_16))
(define-fun _t_549 () Bool (not _t_548))
(define-fun _t_550 () Bool (and _t_547 _t_549))
(define-fun _t_551 () (_ FloatingPoint 8 24) (fp.neg _t_16))
(define-fun _t_552 () Bool (= _t_17 _t_551))
(define-fun _t_553 () Bool (and _t_550 _t_552))
(define-fun _t_554 () (_ FloatingPoint 11 53) ((_ to_fp 11 53) _t_3 _t_169))
(define-fun _t_555 () Bool (fp.leq _t_270 _t_554))
(define-fun _t_556 () Bool (not _t_555))
(define-fun _t_557 () Bool (and _t_553 _t_556))
(define-fun _t_558 () Bool (and _t_19 _t_557))
(assert _t_558)
(check-sat)
